Optimal - objective value -0.00500000
   4481 itb[6]                                        0.1                      0
   4482 itb[7]                                        0.1                      0
